
        $ From http://www.csplib.org/Problems/prob009/data/helmut.pdf
        $ Problem number 106
        $ Sequence length : 25
        language ESSENCE' 1.0
        letting sizemaster be 367
        letting sizes be sequence(1,4,6,12,13,20,21,25,26,27,28,32,37,41,49,53,58,64,69,91,97,102,110,155,212)
        